% Auto-generated by scripts/generate_dzn.py
% problem_type   = regex
% instance       = regex_22
% source_json    = instances_json/1_medium_blowup/regex_22.json
% blowup         = 3.473684210526316
% representation = NFA

mode = 1;

var_count = 18;
n_constraints = 2;
Q = 10;
S = 2;
q0 = [1, 1];
F = [{9}, {10}];
weights = [9, 3, 1, 10, 4, 8, 9, 10, 8, 1, 7, 7, 5, 1, 8, 2, 6, 2];
d_dfa = array3d(1..2, 1..10, 1..2, [
  % k = 1
    0, 0,
    0, 0,
    0, 0,
    0, 0,
    0, 0,
    0, 0,
    0, 0,
    0, 0,
    0, 0,
    0, 0,

  % k = 2
    0, 0,
    0, 0,
    0, 0,
    0, 0,
    0, 0,
    0, 0,
    0, 0,
    0, 0,
    0, 0,
    0, 0
]);
d_nfa = array3d(1..2, 1..10, 1..2, [
  % k = 1
    {1}, {1, 2},
    {3}, {},
    {4}, {4},
    {5}, {5},
    {6}, {6},
    {7}, {7},
    {8}, {8},
    {9}, {9},
    {}, {},
    {}, {},

  % k = 2
    {2}, {1},
    {3}, {2},
    {4}, {3},
    {5}, {4},
    {6}, {5},
    {7}, {6},
    {8}, {7},
    {9}, {8},
    {10}, {9},
    {}, {10}
]);
